examples/problems/Promedus/16/Promedus_16.gr
p tw 715 1121
715 83
715 122
83 122
714 132
714 715
132 715
713 218
713 714
218 714
712 242
712 713
242 713
711 164
711 712
164 712
710 37
710 711
37 711
709 341
709 710
341 710
708 302
708 709
302 709
707 241
707 708
241 708
706 326
706 707
326 707
705 262
705 706
262 706
704 25
704 705
25 705
703 246
703 704
246 704
702 201
702 703
201 703
111 702
701 272
701 252
272 252
700 78
700 701
78 701
699 28
699 700
28 700
698 98
698 699
98 699
697 167
697 698
167 698
696 41
696 697
41 697
695 235
695 696
235 696
694 84
694 695
84 695
693 67
693 694
67 694
692 240
692 693
240 693
691 293
691 692
293 692
690 165
690 691
165 691
689 324
689 690
324 690
688 219
688 689
219 689
687 12
687 688
12 688
686 114
686 687
114 687
685 123
685 686
123 686
684 118
684 685
118 685
683 95
683 684
95 684
682 322
682 683
322 683
681 62
681 682
62 682
680 181
680 681
181 681
679 323
679 680
323 680
678 82
678 679
82 679
677 311
677 678
311 678
676 275
676 677
275 677
675 254
675 676
254 676
674 195
674 675
195 675
673 110
673 674
110 674
672 315
672 673
315 673
671 331
671 672
331 672
670 59
670 671
59 671
669 176
669 670
176 670
668 253
668 669
253 669
667 302
667 668
302 668
666 213
666 667
213 667
665 279
665 666
279 666
664 15
664 665
15 665
663 189
663 664
189 664
662 161
662 663
161 663
661 184
661 662
184 662
660 14
660 661
14 661
659 36
659 660
36 660
658 21
658 659
21 659
657 45
657 658
45 658
656 285
656 657
285 657
655 168
655 656
168 656
654 207
654 655
207 655
653 117
653 654
117 654
652 29
652 653
29 653
651 190
651 652
190 652
650 174
650 651
174 651
649 230
649 650
230 650
648 35
648 649
35 649
647 102
647 648
102 648
646 265
646 647
265 647
645 210
645 646
210 646
644 97
644 645
97 645
643 145
643 644
145 644
642 75
642 643
75 643
641 166
641 642
166 642
640 60
640 641
60 641
639 92
639 640
92 640
638 333
638 639
333 639
637 3
637 638
3 638
636 339
636 637
339 637
635 20
635 636
20 636
634 238
634 635
238 635
633 338
633 634
338 634
632 281
632 633
281 633
631 186
631 632
186 632
630 308
630 631
308 631
629 314
629 630
314 630
628 245
628 629
245 629
627 276
627 628
276 628
626 303
626 627
303 627
625 296
625 626
296 626
624 80
624 625
80 625
623 115
623 624
115 624
622 30
622 623
30 623
621 148
621 622
148 622
620 291
620 621
291 621
619 87
619 620
87 620
618 146
618 619
146 619
617 271
617 618
271 618
616 23
616 617
23 617
615 24
615 616
24 616
614 57
614 615
57 615
613 283
613 614
283 614
612 290
612 613
290 613
611 221
611 612
221 612
610 289
610 611
289 611
609 103
609 610
103 610
608 47
608 609
47 609
607 244
607 608
244 608
606 156
606 607
156 607
605 107
605 606
107 606
604 85
604 605
85 605
603 53
603 604
53 604
602 172
602 603
172 603
601 319
601 602
319 602
600 224
600 601
224 601
599 79
599 600
79 600
598 55
598 599
55 599
597 225
597 598
225 598
596 192
596 597
192 597
595 312
595 596
312 596
594 74
594 595
74 595
593 93
593 594
93 594
592 205
592 593
205 593
591 63
591 592
63 592
590 292
590 591
292 591
589 106
589 590
106 590
588 228
588 589
228 589
587 216
587 588
216 588
586 11
586 587
11 587
585 287
585 586
287 586
584 10
584 585
10 585
583 187
583 584
187 584
582 328
582 583
328 583
581 39
581 582
39 582
580 54
580 581
54 581
579 309
579 580
309 580
578 137
578 579
137 579
577 343
577 578
343 578
576 215
576 577
215 577
575 239
575 576
239 576
574 144
574 575
144 575
573 135
573 574
135 574
572 301
572 573
301 573
571 307
571 572
307 572
570 255
570 571
255 571
569 173
569 570
173 570
568 16
568 569
16 569
567 51
567 568
51 568
566 104
566 567
104 567
565 50
565 566
50 566
564 258
564 565
258 565
563 130
563 564
130 564
562 86
562 563
86 563
561 126
561 562
126 562
560 116
560 561
116 561
559 222
559 560
222 560
558 40
558 559
40 559
557 266
557 558
266 558
556 34
556 557
34 557
555 125
555 556
125 556
554 278
554 555
278 555
553 91
553 554
91 554
552 122
552 553
122 553
551 9
551 552
9 552
550 160
550 551
160 551
549 136
549 550
136 550
548 237
548 549
237 549
547 64
547 548
64 548
546 32
546 547
32 547
545 295
545 546
295 546
544 68
544 545
68 545
543 44
543 544
44 544
542 306
542 543
306 543
541 280
541 542
280 542
540 38
540 541
38 541
539 169
539 540
169 540
538 274
538 539
274 539
537 108
537 538
108 538
536 22
536 537
22 537
535 180
535 536
180 536
534 185
534 535
185 535
533 294
533 534
294 534
532 260
532 533
260 533
531 7
531 532
7 532
530 209
530 531
209 531
529 48
529 530
48 530
528 337
528 529
337 529
527 299
527 528
299 528
526 99
526 527
99 527
525 304
525 526
304 526
524 327
524 525
327 525
523 269
523 524
269 524
522 329
522 523
329 523
521 140
521 522
140 522
520 2
520 521
2 521
519 43
519 520
43 520
518 261
518 519
261 519
517 182
517 518
182 518
516 191
516 517
191 517
515 277
515 516
277 516
514 175
514 515
175 515
513 65
513 514
65 514
512 162
512 513
162 513
511 202
511 512
202 512
510 133
510 511
133 511
509 229
509 510
229 510
508 246
508 509
246 509
507 256
507 508
256 508
506 113
506 507
113 507
505 56
505 506
56 506
504 142
504 505
142 505
503 134
503 504
134 504
502 72
502 503
72 503
501 89
501 502
89 502
500 247
500 501
247 501
499 248
499 500
248 500
498 58
498 499
58 499
497 81
497 498
81 498
496 138
496 497
138 497
495 109
495 496
109 496
494 127
494 495
127 495
493 332
493 494
332 494
492 101
492 493
101 493
491 257
491 492
257 492
490 188
490 491
188 491
489 13
489 490
13 490
488 163
488 489
163 489
487 157
487 488
157 488
486 208
486 487
208 487
485 286
485 486
286 486
484 267
484 485
267 485
483 4
483 484
4 484
482 153
482 483
153 483
481 226
481 482
226 482
480 18
480 481
18 481
479 52
479 480
52 480
478 37
478 479
37 479
477 334
477 478
334 478
476 199
476 477
199 477
475 159
475 476
159 476
474 42
474 475
42 475
473 94
473 474
94 474
472 121
472 473
121 473
471 100
471 472
100 472
470 264
470 471
264 471
469 124
469 470
124 470
468 70
468 469
70 469
467 131
467 468
131 468
466 231
466 467
231 467
465 170
465 466
170 466
464 259
464 465
259 465
463 143
463 464
143 464
462 17
462 463
17 463
461 154
461 462
154 462
460 249
460 461
249 461
459 330
459 460
330 460
458 120
458 459
120 459
457 310
457 458
310 458
456 164
456 457
164 457
455 321
455 456
321 456
454 198
454 455
198 455
453 90
453 454
90 454
452 305
452 453
305 453
451 25
451 452
25 452
450 129
450 451
129 451
449 5
449 450
5 450
448 313
448 449
313 449
447 27
447 448
27 448
446 33
446 447
33 447
445 320
445 446
320 446
444 194
444 445
194 445
443 46
443 444
46 444
442 263
442 443
263 443
441 119
441 442
119 442
440 6
440 441
6 441
439 96
439 440
96 440
438 8
438 439
8 439
437 218
437 438
218 438
436 177
436 437
177 437
435 273
435 436
273 436
434 71
434 435
71 435
433 220
433 434
220 434
432 105
432 433
105 433
431 335
431 432
335 432
430 26
430 431
26 431
429 223
429 430
223 430
428 298
428 429
298 429
427 204
427 428
204 428
426 1
426 427
1 427
425 211
425 426
211 426
424 66
424 425
66 425
423 73
423 424
73 424
422 243
422 423
243 423
421 234
421 422
234 422
420 316
420 421
316 421
419 49
419 420
49 420
418 325
418 419
325 419
417 214
417 418
214 418
416 155
416 417
155 417
415 76
415 416
76 416
414 178
414 415
178 415
413 88
413 414
88 414
412 317
412 413
317 413
77 412
411 307
411 252
307 252
410 179
410 411
179 411
409 67
409 410
67 410
408 342
408 409
342 409
407 297
407 408
297 408
406 251
406 407
251 407
405 217
405 406
217 406
404 108
404 405
108 405
403 22
403 404
22 404
402 250
402 403
250 403
401 318
401 402
318 402
400 110
400 401
110 401
399 212
399 400
212 400
398 329
398 399
329 399
397 161
397 398
161 398
396 277
396 397
277 397
395 21
395 396
21 396
394 202
394 395
202 395
393 227
393 394
227 394
392 197
392 393
197 393
391 300
391 392
300 392
390 149
390 391
149 391
389 196
389 390
196 390
388 257
388 389
257 389
387 236
387 388
236 388
386 288
386 387
288 387
385 150
385 386
150 386
384 152
384 385
152 385
383 37
383 384
37 384
382 42
382 383
42 383
381 171
381 382
171 382
380 330
380 381
330 381
379 19
379 380
19 380
378 290
378 379
290 379
377 233
377 378
233 378
376 198
376 377
198 377
375 206
375 376
206 376
374 336
374 375
336 375
373 141
373 374
141 374
372 200
372 373
200 373
371 96
371 372
96 372
370 284
370 371
284 371
369 214
369 370
214 370
368 88
368 369
88 369
112 368
367 232
367 139
232 139
366 282
366 367
282 367
128 366
365 150
365 340
150 340
364 104
364 365
104 365
363 152
363 364
152 364
362 203
362 363
203 363
361 43
361 362
43 362
360 229
360 361
229 361
359 69
359 360
69 360
358 31
358 359
31 359
357 61
357 358
61 358
356 160
356 357
160 357
355 270
355 356
270 356
354 151
354 355
151 355
353 158
353 354
158 354
352 330
352 353
330 353
351 193
351 352
193 352
350 251
350 351
251 351
349 268
349 350
268 350
348 326
348 349
326 349
347 149
347 348
149 348
346 147
346 347
147 347
345 209
345 346
209 346
344 299
344 345
299 345
183 344
