examples/problems/Promedus/16/Promedus_16.td
c read Graph
c width = 708
c time = 5 ms
c width = 97
c time = 712 ms
c width = 16
c time = 795 ms
c width = 15
c time = 1805 ms
c width = 14
c time = 4112 ms
c width = 13
c time = 4415 ms
c width = 12
c time = 6714 ms
c width = 11
c time = 8301 ms
c width = 11
c time = 299906 ms
s td 673 12 715
b 1 77 412
b 2 317 412 413
b 3 112 368
b 4 111 702
b 5 201 702 703
b 6 183 344
b 7 1 426 427
b 8 370 426 427
b 9 2 520 521
b 10 3 637 638
b 11 613 637 638
b 12 12 687 688
b 13 674 687 688
b 14 122 552 553 714
b 15 150 365 385 386
b 16 246 508 509 704
b 17 252 307 411 694
b 18 299 345 527 528
b 19 209 345 346 347
b 20 326 348 349 350
b 21 251 350 351 352
b 22 330 352 353 356
b 23 160 356 357 360
b 24 43 361 362 363
b 25 96 371 372 437
b 26 96 372 376 437
b 27 198 376 377 378
b 28 290 378 379 380
b 29 330 380 381 382
b 30 365 385 386 388
b 31 257 388 389 390
b 32 149 390 391 394
b 33 329 398 399 400
b 34 110 400 401 403
b 35 108 404 405 406
b 36 251 406 407 409
b 37 67 409 410 411
b 38 218 437 438 439
b 39 96 439 440 451
b 40 25 451 452 454
b 41 198 454 455 456
b 42 164 456 457 459
b 43 330 459 460 474
b 44 42 474 475 478
b 45 37 478 479 491
b 46 257 491 492 508
b 47 229 509 510 511
b 48 202 511 512 515
b 49 277 515 516 519
b 50 43 519 520 522
b 51 329 522 523 527
b 52 345 527 528 530
b 53 209 530 531 536
b 54 108 537 538 550
b 55 160 550 551 552
b 56 552 553 566 714
b 57 104 566 567 571
b 58 307 571 572 612
b 59 290 612 613 658
b 60 21 658 659 662
b 61 161 662 663 667
b 62 302 667 668 673
b 63 110 673 674 693
b 64 25 704 705 706
b 65 326 706 707 708
b 66 302 708 709 710
b 67 164 711 712 713
b 68 67 409 411 693 694
b 69 307 409 411 693 694
b 70 21 395 396 658 662
b 71 22 395 396 403 404 536 537 658 662
b 72 108 395 396 403 404 406 536 537 550 658 662
b 73 277 395 396 397 403 404 406 536 537 550 658 662
b 74 277 395 397 403 406 515 519 536 537 550 658 662
b 75 394 395 397 403 406 511 515 519 536 550 658 662
b 76 161 394 397 398 403 406 511 519 536 550 658 662
b 77 161 394 398 403 406 511 519 536 550 658 662 667
b 78 329 394 398 400 403 406 511 519 536 550 658 667
b 79 110 329 394 400 403 406 511 519 536 550 658 667
b 80 110 329 394 406 511 519 536 550 658 667 673 693
b 81 302 329 394 406 511 519 536 550 658 667 673 693
b 82 302 329 394 406 511 519 522 527 536 550 658 693
b 83 43 302 394 406 511 519 522 527 536 550 658 693
b 84 43 302 361 363 394 406 511 527 536 550 658 693
b 85 302 347 361 363 394 406 511 527 536 550 658 693
b 86 149 302 347 348 361 363 394 406 511 550 658 693
b 87 149 302 348 361 363 390 394 406 511 550 658 693
b 88 229 302 348 360 361 363 390 406 511 550 658 693
b 89 229 302 348 360 363 390 406 509 511 550 658 693
b 90 160 302 348 356 360 363 390 406 509 550 658 693
b 91 160 302 348 356 363 390 406 509 550 552 658 693
b 92 251 302 348 356 363 390 406 409 509 552 658 693
b 93 251 302 307 348 356 363 390 409 509 552 658 693
b 94 251 302 307 348 350 352 356 363 390 509 552 658
b 95 302 307 326 348 350 352 356 363 390 509 552 658
b 96 302 307 326 352 356 363 390 509 552 658 708 710
b 97 307 326 352 356 363 390 509 552 658 706 708 710
b 98 307 330 352 356 363 390 509 552 658 706 708 710
b 99 307 330 363 390 509 552 571 612 658 706 708 710
b 100 290 330 363 390 509 552 571 612 658 706 708 710
b 101 290 330 363 378 380 390 509 552 571 706 708 710
b 102 25 330 363 378 380 390 508 509 552 571 706 710
b 103 25 363 378 380 390 508 509 552 571 704 706 710
b 104 202 394 395 511 515
b 105 25 218 330 363 378 380 390 456 508 552 571 710
b 106 218 330 363 380 390 456 508 552 566 571 710 713
b 107 37 330 363 380 390 456 459 508 566 571 710 713
b 108 37 363 380 390 456 459 508 566 571 710 711 713
b 109 25 218 376 378 454 456
b 110 198 376 378 454 456
b 111 25 218 376 451 454
b 112 218 552 566 713 714
b 113 164 456 459 711 713
b 114 37 330 363 380 384 390 459 478 508 566 571
b 115 37 330 380 383 384 459 478
b 116 330 380 383 459 474 478
b 117 330 380 382 383 474 478
b 118 42 382 383 474 478
b 119 37 363 384 388 390 478 508 566 571
b 120 37 388 390 478 491 508
b 121 257 388 390 491 508
b 122 363 364 384 385 388 566 571
b 123 152 363 364 384 385
b 124 364 365 385 388 566 571
b 125 104 364 365 566 571
b 126 345 347 527 530 536
b 127 209 345 347 530 536
b 128 218 376 437 439 451
b 129 96 376 437 439 451
b 130 242 712 713
b 131 341 709 710
b 132 241 707 708
b 133 262 705 706
b 134 240 692 693
b 135 674 692 693
b 136 293 691 692
b 137 674 691 692
b 138 165 690 691
b 139 674 690 691
b 140 324 689 690
b 141 674 689 690
b 142 219 688 689
b 143 674 688 689
b 144 114 686 687
b 145 674 686 687
b 146 123 685 686
b 147 674 685 686
b 148 118 684 685
b 149 674 684 685
b 150 95 683 684
b 151 674 683 684
b 152 322 682 683
b 153 674 682 683
b 154 62 681 682
b 155 674 681 682
b 156 181 680 681
b 157 674 680 681
b 158 323 679 680
b 159 674 679 680
b 160 82 678 679
b 161 674 678 679
b 162 311 677 678
b 163 674 677 678
b 164 275 676 677
b 165 674 676 677
b 166 254 675 676
b 167 674 675 676
b 168 195 674 675
b 169 315 672 673
b 170 668 672 673
b 171 331 671 672
b 172 668 671 672
b 173 59 670 671
b 174 668 670 671
b 175 176 669 670
b 176 668 669 670
b 177 253 668 669
b 178 213 666 667
b 179 663 666 667
b 180 279 665 666
b 181 663 665 666
b 182 15 664 665
b 183 663 664 665
b 184 189 663 664
b 185 184 661 662
b 186 659 661 662
b 187 14 660 661
b 188 659 660 661
b 189 36 659 660
b 190 45 657 658
b 191 613 657 658
b 192 285 656 657
b 193 613 656 657
b 194 168 655 656
b 195 613 655 656
b 196 207 654 655
b 197 613 654 655
b 198 117 653 654
b 199 613 653 654
b 200 29 652 653
b 201 613 652 653
b 202 190 651 652
b 203 613 651 652
b 204 174 650 651
b 205 613 650 651
b 206 230 649 650
b 207 613 649 650
b 208 35 648 649
b 209 613 648 649
b 210 102 647 648
b 211 613 647 648
b 212 265 646 647
b 213 613 646 647
b 214 210 645 646
b 215 613 645 646
b 216 97 644 645
b 217 613 644 645
b 218 145 643 644
b 219 613 643 644
b 220 75 642 643
b 221 613 642 643
b 222 166 641 642
b 223 613 641 642
b 224 60 640 641
b 225 613 640 641
b 226 92 639 640
b 227 613 639 640
b 228 333 638 639
b 229 613 638 639
b 230 339 636 637
b 231 613 636 637
b 232 20 635 636
b 233 613 635 636
b 234 238 634 635
b 235 613 634 635
b 236 338 633 634
b 237 613 633 634
b 238 281 632 633
b 239 613 632 633
b 240 186 631 632
b 241 613 631 632
b 242 308 630 631
b 243 613 630 631
b 244 314 629 630
b 245 613 629 630
b 246 245 628 629
b 247 613 628 629
b 248 276 627 628
b 249 613 627 628
b 250 303 626 627
b 251 613 626 627
b 252 296 625 626
b 253 613 625 626
b 254 80 624 625
b 255 613 624 625
b 256 115 623 624
b 257 613 623 624
b 258 30 622 623
b 259 613 622 623
b 260 148 621 622
b 261 613 621 622
b 262 291 620 621
b 263 613 620 621
b 264 87 619 620
b 265 613 619 620
b 266 146 618 619
b 267 613 618 619
b 268 271 617 618
b 269 613 617 618
b 270 23 616 617
b 271 613 616 617
b 272 24 615 616
b 273 613 615 616
b 274 57 614 615
b 275 613 614 615
b 276 283 613 614
b 277 221 611 612
b 278 572 611 612
b 279 289 610 611
b 280 572 610 611
b 281 103 609 610
b 282 572 609 610
b 283 47 608 609
b 284 572 608 609
b 285 244 607 608
b 286 572 607 608
b 287 156 606 607
b 288 572 606 607
b 289 107 605 606
b 290 572 605 606
b 291 85 604 605
b 292 572 604 605
b 293 53 603 604
b 294 572 603 604
b 295 172 602 603
b 296 572 602 603
b 297 319 601 602
b 298 572 601 602
b 299 224 600 601
b 300 572 600 601
b 301 79 599 600
b 302 572 599 600
b 303 55 598 599
b 304 572 598 599
b 305 225 597 598
b 306 572 597 598
b 307 192 596 597
b 308 572 596 597
b 309 312 595 596
b 310 572 595 596
b 311 74 594 595
b 312 572 594 595
b 313 93 593 594
b 314 572 593 594
b 315 205 592 593
b 316 572 592 593
b 317 63 591 592
b 318 572 591 592
b 319 292 590 591
b 320 572 590 591
b 321 106 589 590
b 322 572 589 590
b 323 228 588 589
b 324 572 588 589
b 325 216 587 588
b 326 572 587 588
b 327 11 586 587
b 328 572 586 587
b 329 287 585 586
b 330 572 585 586
b 331 10 584 585
b 332 572 584 585
b 333 187 583 584
b 334 572 583 584
b 335 328 582 583
b 336 572 582 583
b 337 39 581 582
b 338 572 581 582
b 339 54 580 581
b 340 572 580 581
b 341 309 579 580
b 342 572 579 580
b 343 137 578 579
b 344 572 578 579
b 345 343 577 578
b 346 572 577 578
b 347 215 576 577
b 348 572 576 577
b 349 239 575 576
b 350 572 575 576
b 351 144 574 575
b 352 572 574 575
b 353 135 573 574
b 354 572 573 574
b 355 301 572 573
b 356 255 570 571
b 357 567 570 571
b 358 173 569 570
b 359 567 569 570
b 360 16 568 569
b 361 567 568 569
b 362 51 567 568
b 363 50 565 566
b 364 553 565 566
b 365 258 564 565
b 366 553 564 565
b 367 130 563 564
b 368 553 563 564
b 369 86 562 563
b 370 553 562 563
b 371 126 561 562
b 372 553 561 562
b 373 116 560 561
b 374 553 560 561
b 375 222 559 560
b 376 553 559 560
b 377 40 558 559
b 378 553 558 559
b 379 266 557 558
b 380 553 557 558
b 381 34 556 557
b 382 553 556 557
b 383 125 555 556
b 384 553 555 556
b 385 278 554 555
b 386 553 554 555
b 387 91 553 554
b 388 9 551 552
b 389 136 549 550
b 390 538 549 550
b 391 237 548 549
b 392 538 548 549
b 393 64 547 548
b 394 538 547 548
b 395 32 546 547
b 396 538 546 547
b 397 295 545 546
b 398 538 545 546
b 399 68 544 545
b 400 538 544 545
b 401 44 543 544
b 402 538 543 544
b 403 306 542 543
b 404 538 542 543
b 405 280 541 542
b 406 538 541 542
b 407 38 540 541
b 408 538 540 541
b 409 169 539 540
b 410 538 539 540
b 411 274 538 539
b 412 180 535 536
b 413 531 535 536
b 414 185 534 535
b 415 531 534 535
b 416 294 533 534
b 417 531 533 534
b 418 260 532 533
b 419 531 532 533
b 420 7 531 532
b 421 48 529 530
b 422 528 529 530
b 423 337 528 529
b 424 99 526 527
b 425 523 526 527
b 426 304 525 526
b 427 523 525 526
b 428 327 524 525
b 429 523 524 525
b 430 269 523 524
b 431 140 521 522
b 432 520 521 522
b 433 261 518 519
b 434 516 518 519
b 435 182 517 518
b 436 516 517 518
b 437 191 516 517
b 438 175 514 515
b 439 512 514 515
b 440 65 513 514
b 441 512 513 514
b 442 162 512 513
b 443 133 510 511
b 444 256 507 508
b 445 492 507 508
b 446 113 506 507
b 447 492 506 507
b 448 56 505 506
b 449 492 505 506
b 450 142 504 505
b 451 492 504 505
b 452 134 503 504
b 453 492 503 504
b 454 72 502 503
b 455 492 502 503
b 456 89 501 502
b 457 492 501 502
b 458 247 500 501
b 459 492 500 501
b 460 248 499 500
b 461 492 499 500
b 462 58 498 499
b 463 492 498 499
b 464 81 497 498
b 465 492 497 498
b 466 138 496 497
b 467 492 496 497
b 468 109 495 496
b 469 492 495 496
b 470 127 494 495
b 471 492 494 495
b 472 332 493 494
b 473 492 493 494
b 474 101 492 493
b 475 188 490 491
b 476 479 490 491
b 477 13 489 490
b 478 479 489 490
b 479 163 488 489
b 480 479 488 489
b 481 157 487 488
b 482 479 487 488
b 483 208 486 487
b 484 479 486 487
b 485 286 485 486
b 486 479 485 486
b 487 267 484 485
b 488 479 484 485
b 489 4 483 484
b 490 479 483 484
b 491 153 482 483
b 492 479 482 483
b 493 226 481 482
b 494 479 481 482
b 495 18 480 481
b 496 479 480 481
b 497 52 479 480
b 498 334 477 478
b 499 475 477 478
b 500 199 476 477
b 501 475 476 477
b 502 159 475 476
b 503 94 473 474
b 504 460 473 474
b 505 121 472 473
b 506 460 472 473
b 507 100 471 472
b 508 460 471 472
b 509 264 470 471
b 510 460 470 471
b 511 124 469 470
b 512 460 469 470
b 513 70 468 469
b 514 460 468 469
b 515 131 467 468
b 516 460 467 468
b 517 231 466 467
b 518 460 466 467
b 519 170 465 466
b 520 460 465 466
b 521 259 464 465
b 522 460 464 465
b 523 143 463 464
b 524 460 463 464
b 525 17 462 463
b 526 460 462 463
b 527 154 461 462
b 528 460 461 462
b 529 249 460 461
b 530 120 458 459
b 531 457 458 459
b 532 310 457 458
b 533 321 455 456
b 534 90 453 454
b 535 452 453 454
b 536 305 452 453
b 537 129 450 451
b 538 440 450 451
b 539 5 449 450
b 540 440 449 450
b 541 313 448 449
b 542 440 448 449
b 543 27 447 448
b 544 440 447 448
b 545 33 446 447
b 546 440 446 447
b 547 320 445 446
b 548 440 445 446
b 549 194 444 445
b 550 440 444 445
b 551 46 443 444
b 552 440 443 444
b 553 263 442 443
b 554 440 442 443
b 555 119 441 442
b 556 440 441 442
b 557 6 440 441
b 558 8 438 439
b 559 179 410 411
b 560 342 408 409
b 561 407 408 409
b 562 297 407 408
b 563 217 405 406
b 564 250 402 403
b 565 401 402 403
b 566 318 401 402
b 567 212 399 400
b 568 227 393 394
b 569 391 393 394
b 570 197 392 393
b 571 391 392 393
b 572 300 391 392
b 573 196 389 390
b 574 236 387 388
b 575 386 387 388
b 576 288 386 387
b 577 171 381 382
b 578 19 379 380
b 579 233 377 378
b 580 206 375 376
b 581 372 375 376
b 582 336 374 375
b 583 372 374 375
b 584 141 373 374
b 585 372 373 374
b 586 200 372 373
b 587 370 371 437
b 588 177 436 437
b 589 370 436 437
b 590 273 435 436
b 591 370 435 436
b 592 71 434 435
b 593 370 434 435
b 594 220 433 434
b 595 370 433 434
b 596 105 432 433
b 597 370 432 433
b 598 335 431 432
b 599 370 431 432
b 600 26 430 431
b 601 370 430 431
b 602 223 429 430
b 603 370 429 430
b 604 298 428 429
b 605 370 428 429
b 606 204 427 428
b 607 370 427 428
b 608 211 425 426
b 609 370 425 426
b 610 66 424 425
b 611 370 424 425
b 612 73 423 424
b 613 370 423 424
b 614 243 422 423
b 615 370 422 423
b 616 234 421 422
b 617 370 421 422
b 618 316 420 421
b 619 370 420 421
b 620 49 419 420
b 621 370 419 420
b 622 325 418 419
b 623 370 418 419
b 624 214 369 370 417
b 625 214 370 417 418
b 626 284 370 371
b 627 88 369 417
b 628 203 362 363
b 629 69 359 360
b 630 357 359 360
b 631 31 358 359
b 632 357 358 359
b 633 61 357 358
b 634 270 355 356
b 635 353 355 356
b 636 151 354 355
b 637 353 354 355
b 638 158 353 354
b 639 193 351 352
b 640 268 349 350
b 641 147 346 347
b 642 299 344 345
b 643 28 699 700
b 644 252 699 700
b 645 78 700 701
b 646 252 700 701
b 647 252 272 701
b 648 98 698 699
b 649 252 698 699
b 650 167 697 698
b 651 252 697 698
b 652 41 696 697
b 653 252 696 697
b 654 235 695 696
b 655 252 695 696
b 656 84 694 695
b 657 252 694 695
b 658 246 703 704
b 659 150 340 365
b 660 83 122 715
b 661 122 714 715
b 662 132 714 715
b 663 88 416 417
b 664 155 416 417
b 665 76 415 416
b 666 88 415 416
b 667 88 414 415
b 668 178 414 415
b 669 88 413 414
b 670 88 368 369
b 671 139 232 367
b 672 282 366 367
b 673 128 366
1 2
1 671
2 669
3 670
4 5
5 658
6 642
7 8
8 609
8 607
9 432
10 11
11 231
11 229
12 13
13 145
13 143
14 661
14 56
15 659
15 30
16 658
16 103
17 657
17 69
18 642
18 52
19 641
19 127
20 640
20 95
21 639
21 94
22 635
22 98
23 630
23 90
24 628
24 84
25 587
25 26
26 581
26 129
27 579
27 110
28 578
28 101
29 577
29 117
30 575
30 124
31 573
31 121
32 569
32 87
33 567
33 78
34 565
34 79
35 563
35 72
36 561
36 92
37 559
37 68
38 558
38 128
39 538
39 129
40 535
40 111
41 533
41 110
42 531
42 113
43 504
43 116
44 499
44 118
45 476
45 120
46 445
46 121
47 443
47 89
48 439
48 104
49 434
49 74
50 432
50 83
51 425
51 82
52 422
52 126
53 413
53 127
54 390
54 72
55 388
55 91
56 364
56 112
57 357
57 125
58 278
58 99
59 191
59 100
60 186
60 70
61 179
61 77
62 170
62 81
63 135
63 80
64 133
64 103
65 132
65 97
66 131
66 96
67 130
67 113
68 69
69 93
70 71
71 72
72 73
73 74
74 75
75 104
75 76
76 77
77 78
78 79
79 80
80 81
81 82
82 83
83 84
84 85
85 126
85 86
86 87
87 88
88 89
89 90
90 91
91 92
92 93
93 94
94 95
95 96
96 97
97 98
98 99
99 100
100 101
101 102
102 105
102 103
105 109
105 106
106 112
106 107
107 114
107 108
108 113
109 111
109 110
111 128
114 115
114 119
115 116
116 117
117 118
119 122
119 120
120 121
122 123
122 124
124 125
126 127
128 129
134 135
135 137
136 137
137 139
138 139
139 141
140 141
141 143
142 143
144 145
145 147
146 147
147 149
148 149
149 151
150 151
151 153
152 153
153 155
154 155
155 157
156 157
157 159
158 159
159 161
160 161
161 163
162 163
163 165
164 165
165 167
166 167
167 168
169 170
170 172
171 172
172 174
173 174
174 176
175 176
176 177
178 179
179 181
180 181
181 183
182 183
183 184
185 186
186 188
187 188
188 189
190 191
191 193
192 193
193 195
194 195
195 197
196 197
197 199
198 199
199 201
200 201
201 203
202 203
203 205
204 205
205 207
206 207
207 209
208 209
209 211
210 211
211 213
212 213
213 215
214 215
215 217
216 217
217 219
218 219
219 221
220 221
221 223
222 223
223 225
224 225
225 227
226 227
227 229
228 229
230 231
231 233
232 233
233 235
234 235
235 237
236 237
237 239
238 239
239 241
240 241
241 243
242 243
243 245
244 245
245 247
246 247
247 249
248 249
249 251
250 251
251 253
252 253
253 255
254 255
255 257
256 257
257 259
258 259
259 261
260 261
261 263
262 263
263 265
264 265
265 267
266 267
267 269
268 269
269 271
270 271
271 273
272 273
273 275
274 275
275 276
277 278
278 280
279 280
280 282
281 282
282 284
283 284
284 286
285 286
286 288
287 288
288 290
289 290
290 292
291 292
292 294
293 294
294 296
295 296
296 298
297 298
298 300
299 300
300 302
301 302
302 304
303 304
304 306
305 306
306 308
307 308
308 310
309 310
310 312
311 312
312 314
313 314
314 316
315 316
316 318
317 318
318 320
319 320
320 322
321 322
322 324
323 324
324 326
325 326
326 328
327 328
328 330
329 330
330 332
331 332
332 334
333 334
334 336
335 336
336 338
337 338
338 340
339 340
340 342
341 342
342 344
343 344
344 346
345 346
346 348
347 348
348 350
349 350
350 352
351 352
352 354
353 354
354 355
356 357
357 359
358 359
359 361
360 361
361 362
363 364
364 366
365 366
366 368
367 368
368 370
369 370
370 372
371 372
372 374
373 374
374 376
375 376
376 378
377 378
378 380
379 380
380 382
381 382
382 384
383 384
384 386
385 386
386 387
389 390
390 392
391 392
392 394
393 394
394 396
395 396
396 398
397 398
398 400
399 400
400 402
401 402
402 404
403 404
404 406
405 406
406 408
407 408
408 410
409 410
410 411
412 413
413 415
414 415
415 417
416 417
417 419
418 419
419 420
421 422
422 423
424 425
425 427
426 427
427 429
428 429
429 430
431 432
433 434
434 436
435 436
436 437
438 439
439 441
440 441
441 442
444 445
445 447
446 447
447 449
448 449
449 451
450 451
451 453
452 453
453 455
454 455
455 457
456 457
457 459
458 459
459 461
460 461
461 463
462 463
463 465
464 465
465 467
466 467
467 469
468 469
469 471
470 471
471 473
472 473
473 474
475 476
476 478
477 478
478 480
479 480
480 482
481 482
482 484
483 484
484 486
485 486
486 488
487 488
488 490
489 490
490 492
491 492
492 494
493 494
494 496
495 496
496 497
498 499
499 501
500 501
501 502
503 504
504 506
505 506
506 508
507 508
508 510
509 510
510 512
511 512
512 514
513 514
514 516
515 516
516 518
517 518
518 520
519 520
520 522
521 522
522 524
523 524
524 526
525 526
526 528
527 528
528 529
530 531
531 532
534 535
535 536
537 538
538 540
539 540
540 542
541 542
542 544
543 544
544 546
545 546
546 548
547 548
548 550
549 550
550 552
551 552
552 554
553 554
554 556
555 556
556 557
560 561
561 562
564 565
565 566
568 569
569 571
570 571
571 572
574 575
575 576
580 581
581 583
582 583
583 585
584 585
585 586
587 626
587 589
588 589
589 591
590 591
591 593
592 593
593 595
594 595
595 597
596 597
597 599
598 599
599 601
600 601
601 603
602 603
603 605
604 605
605 607
606 607
608 609
609 611
610 611
611 613
612 613
613 615
614 615
615 617
616 617
617 619
618 619
619 621
620 621
621 623
622 623
623 625
624 627
624 625
627 670
627 663
629 630
630 632
631 632
632 633
634 635
635 637
636 637
637 638
643 644
644 649
644 646
645 646
646 647
648 649
649 651
650 651
651 653
652 653
653 655
654 655
655 657
656 657
660 661
661 662
663 666
663 664
665 666
666 667
667 669
667 668
671 672
672 673
